s td 69 18 102
b 1 6 13 93
b 2 11 15 74
b 3 17 32 43
b 4 1 9 77 93
b 5 5 30 74 78
b 6 18 33 36 61
b 7 32 45 76 95
b 8 40 50 82 92
b 9 34 51 52 93
b 10 13 29 75 92
b 11 59 67 72 88
b 12 1 3 10 18 28 32 34 39 55 58 59 64 67 69 82 86 89 96
b 13 3 8 18 28 32 34 55 58 59 64 67 69 72 78 82 86 89 96
b 14 3 5 8 11 28 32 34 58 59 64 67 69 72 78 82 86 89 96
b 15 3 5 8 11 28 32 34 58 59 64 69 70 78 82 86 89 96
b 16 3 5 8 11 28 32 34 58 59 69 70 76 78 82 86 89 96
b 17 3 5 8 11 28 32 34 48 58 59 69 70 76 78 82 86 89
b 18 3 5 11 16 28 34 48 58 70 76 78 82 89
b 19 2 5 16 48 82
b 20 3 5 11 16 28 34 42 48 58 70 76 78 89
b 21 3 11 16 24 28 34 42 49 58 70 76 78 89
b 22 3 11 12 16 24 28 34 42 49 70 76 78 89 99
b 23 11 12 24 34 42 49 70 76 78 89 91 99
b 24 11 12 24 31 49 70 76 78 89 91 99
b 25 11 12 76 90 91
b 26 24 49 54 70 78 89
b 27 5 8 11 32 41 48 59 69 76 86 95
b 28 11 20 32 41 76 86
b 29 5 8 11 41 59 86 94 95
b 30 5 8 41 59 62 94 95
b 31 5 8 41 59 62 71 94
b 32 5 59 62 71 81 94
b 33 5 8 59 62 71 100
b 34 8 18 55 64 67 72 78 85 86
b 35 8 18 23 55 64 72 85 86
b 36 8 18 23 55 56 64 85 102
b 37 8 18 53 55 56 64 85 102
b 38 8 53 56 64 66 80 85 102
b 39 53 56 66 80 85 97 102
b 40 1 3 10 18 27 32 34 39 55 58 59 64 67 69 82 86 89 96
b 41 1 10 18 27 29 32 34 39 55 59 64 67 69 82 86 89 96
b 42 1 10 27 29 32 34 35 39 55 59 67 69 82 86 89 92 96
b 43 1 10 27 29 32 34 35 39 55 67 82 86 89 92 93 96
b 44 14 29 34 82 89 92 93
b 45 14 34 46 82 92 93
b 46 1 10 27 29 32 35 37 39 67 86 92 93 96
b 47 10 21 32 37 86
b 48 1 10 27 29 32 37 39 67 77 86 92 93 96
b 49 44 55 59 69 92
b 50 4 34 40 46 93
b 51 34 40 46 82 92 93
b 52 10 38 39 77 92
b 53 32 65 70 76 96
b 54 5 59 68 71 81
b 55 14 46 73 82 92
b 56 25 47 62 87 95
b 57 7 33 53 55 56 61
b 58 17 32 70 76 79 96
b 59 34 46 52 82 92 93
b 60 8 53 56 63 66 80
b 61 53 56 64 66 80 83
b 62 13 29 34 89 93 98
b 63 13 29 34 89 92 93
b 64 18 33 53 55 56 61 102
b 65 5 11 67 72 74 78 86
b 66 19 22 25 47 57 60 62 84 95
b 67 19 22 25 26 47 57 62 84 95 101
b 68 22 25 41 47 57 62 95
b 69 25 41 47 57 62 95
1 63
2 65
3 58
4 48
5 65
6 64
7 27
8 51
9 59
10 63
11 13
12 13
12 40
13 14
13 34
14 65
14 15
15 16
16 53
16 58
16 17
17 18
17 27
18 19
18 20
20 21
21 22
21 26
22 23
23 24
23 25
27 28
27 29
29 30
30 69
30 31
31 32
31 33
32 54
34 35
35 36
36 37
37 64
37 38
38 60
38 61
38 39
40 41
41 42
42 43
42 49
43 63
43 44
43 46
44 45
45 55
45 51
45 59
46 47
46 48
48 52
50 51
56 69
57 64
62 63
66 67
67 68
68 69
